; Benchmark for LTL-sketching problem
(set-logic QF_UF)
(set-info :status unknown)
(declare-fun z_1_0 () Bool)
(declare-fun z_0_0 () Bool)
(declare-fun z_1_9 () Bool)
(declare-fun z_1_8 () Bool)
(declare-fun z_1_7 () Bool)
(declare-fun z_1_6 () Bool)
(declare-fun z_1_5 () Bool)
(declare-fun z_1_4 () Bool)
(declare-fun z_1_3 () Bool)
(declare-fun z_1_2 () Bool)
(declare-fun z_1_1 () Bool)
(declare-fun z_0_1 () Bool)
(declare-fun z_0_2 () Bool)
(declare-fun z_0_3 () Bool)
(declare-fun z_0_4 () Bool)
(declare-fun z_0_5 () Bool)
(declare-fun z_0_6 () Bool)
(declare-fun z_0_7 () Bool)
(declare-fun z_0_8 () Bool)
(declare-fun z_0_9 () Bool)
(declare-fun z_1_19 () Bool)
(declare-fun z_1_18 () Bool)
(declare-fun z_1_17 () Bool)
(declare-fun z_1_16 () Bool)
(declare-fun z_1_15 () Bool)
(declare-fun z_1_14 () Bool)
(declare-fun z_1_13 () Bool)
(declare-fun z_1_12 () Bool)
(declare-fun z_1_11 () Bool)
(declare-fun z_1_10 () Bool)
(declare-fun z_0_10 () Bool)
(declare-fun z_0_11 () Bool)
(declare-fun z_0_12 () Bool)
(declare-fun z_0_13 () Bool)
(declare-fun z_0_14 () Bool)
(declare-fun z_0_15 () Bool)
(declare-fun z_0_16 () Bool)
(declare-fun z_0_17 () Bool)
(declare-fun z_0_18 () Bool)
(declare-fun z_0_19 () Bool)
(declare-fun z_1_30 () Bool)
(declare-fun z_1_29 () Bool)
(declare-fun z_1_28 () Bool)
(declare-fun z_1_27 () Bool)
(declare-fun z_1_26 () Bool)
(declare-fun z_1_25 () Bool)
(declare-fun z_1_24 () Bool)
(declare-fun z_1_23 () Bool)
(declare-fun z_1_22 () Bool)
(declare-fun z_1_21 () Bool)
(declare-fun z_1_20 () Bool)
(declare-fun z_0_20 () Bool)
(declare-fun z_0_21 () Bool)
(declare-fun z_0_22 () Bool)
(declare-fun z_0_23 () Bool)
(declare-fun z_0_24 () Bool)
(declare-fun z_0_25 () Bool)
(declare-fun z_0_26 () Bool)
(declare-fun z_0_27 () Bool)
(declare-fun z_0_28 () Bool)
(declare-fun z_0_29 () Bool)
(declare-fun z_0_30 () Bool)
(declare-fun z_1_32 () Bool)
(declare-fun z_1_31 () Bool)
(declare-fun z_0_31 () Bool)
(declare-fun z_0_32 () Bool)
(declare-fun z_1_38 () Bool)
(declare-fun z_1_37 () Bool)
(declare-fun z_1_36 () Bool)
(declare-fun z_1_35 () Bool)
(declare-fun z_1_34 () Bool)
(declare-fun z_1_33 () Bool)
(declare-fun z_0_33 () Bool)
(declare-fun z_0_34 () Bool)
(declare-fun z_0_35 () Bool)
(declare-fun z_0_36 () Bool)
(declare-fun z_0_37 () Bool)
(declare-fun z_0_38 () Bool)
(declare-fun z_1_50 () Bool)
(declare-fun z_1_49 () Bool)
(declare-fun z_1_48 () Bool)
(declare-fun z_1_47 () Bool)
(declare-fun z_1_46 () Bool)
(declare-fun z_1_45 () Bool)
(declare-fun z_1_44 () Bool)
(declare-fun z_1_43 () Bool)
(declare-fun z_1_42 () Bool)
(declare-fun z_1_41 () Bool)
(declare-fun z_1_40 () Bool)
(declare-fun z_1_39 () Bool)
(declare-fun z_0_39 () Bool)
(declare-fun z_0_40 () Bool)
(declare-fun z_0_41 () Bool)
(declare-fun z_0_42 () Bool)
(declare-fun z_0_43 () Bool)
(declare-fun z_0_44 () Bool)
(declare-fun z_0_45 () Bool)
(declare-fun z_0_46 () Bool)
(declare-fun z_0_47 () Bool)
(declare-fun z_0_48 () Bool)
(declare-fun z_0_49 () Bool)
(declare-fun z_0_50 () Bool)
(declare-fun z_1_57 () Bool)
(declare-fun z_1_56 () Bool)
(declare-fun z_1_55 () Bool)
(declare-fun z_1_54 () Bool)
(declare-fun z_1_53 () Bool)
(declare-fun z_1_52 () Bool)
(declare-fun z_1_51 () Bool)
(declare-fun z_0_51 () Bool)
(declare-fun z_0_52 () Bool)
(declare-fun z_0_53 () Bool)
(declare-fun z_0_54 () Bool)
(declare-fun z_0_55 () Bool)
(declare-fun z_0_56 () Bool)
(declare-fun z_0_57 () Bool)
(declare-fun z_1_69 () Bool)
(declare-fun z_1_68 () Bool)
(declare-fun z_1_67 () Bool)
(declare-fun z_1_66 () Bool)
(declare-fun z_1_65 () Bool)
(declare-fun z_1_64 () Bool)
(declare-fun z_1_63 () Bool)
(declare-fun z_1_62 () Bool)
(declare-fun z_1_61 () Bool)
(declare-fun z_1_60 () Bool)
(declare-fun z_1_59 () Bool)
(declare-fun z_1_58 () Bool)
(declare-fun z_0_58 () Bool)
(declare-fun z_0_59 () Bool)
(declare-fun z_0_60 () Bool)
(declare-fun z_0_61 () Bool)
(declare-fun z_0_62 () Bool)
(declare-fun z_0_63 () Bool)
(declare-fun z_0_64 () Bool)
(declare-fun z_0_65 () Bool)
(declare-fun z_0_66 () Bool)
(declare-fun z_0_67 () Bool)
(declare-fun z_0_68 () Bool)
(declare-fun z_0_69 () Bool)
(declare-fun z_1_73 () Bool)
(declare-fun z_1_72 () Bool)
(declare-fun z_1_71 () Bool)
(declare-fun z_1_70 () Bool)
(declare-fun z_0_70 () Bool)
(declare-fun z_0_71 () Bool)
(declare-fun z_0_72 () Bool)
(declare-fun z_0_73 () Bool)
(assert
 (= z_0_0 (and z_1_0)))
(assert
 (let (($x38 (and z_1_1 z_1_2 z_1_3 z_1_4 z_1_5 z_1_6 z_1_7 z_1_8 z_1_9)))
 (= z_0_1 $x38)))
(assert
 (= z_0_2 (and z_1_2 z_1_3 z_1_4 z_1_5 z_1_6 z_1_7 z_1_8 z_1_9)))
(assert
 (= z_0_3 (and z_1_3 z_1_4 z_1_5 z_1_6 z_1_7 z_1_8 z_1_9)))
(assert
 (= z_0_4 (and z_1_4 z_1_5 z_1_6 z_1_7 z_1_8 z_1_9)))
(assert
 (= z_0_5 (and z_1_5 z_1_6 z_1_7 z_1_8 z_1_9)))
(assert
 (= z_0_6 (and z_1_6 z_1_7 z_1_8 z_1_9 z_1_5)))
(assert
 (= z_0_7 (and z_1_7 z_1_8 z_1_9 z_1_5 z_1_6)))
(assert
 (= z_0_8 (and z_1_8 z_1_9 z_1_5 z_1_6 z_1_7)))
(assert
 (= z_0_9 (and z_1_9 z_1_5 z_1_6 z_1_7 z_1_8)))
(assert
 (let (($x75 (and z_1_10 z_1_11 z_1_12 z_1_13 z_1_14 z_1_15 z_1_16 z_1_17 z_1_18 z_1_19)))
 (= z_0_10 $x75)))
(assert
 (let (($x78 (and z_1_11 z_1_12 z_1_13 z_1_14 z_1_15 z_1_16 z_1_17 z_1_18 z_1_19)))
 (= z_0_11 $x78)))
(assert
 (let (($x81 (and z_1_12 z_1_13 z_1_14 z_1_15 z_1_16 z_1_17 z_1_18 z_1_19)))
 (= z_0_12 $x81)))
(assert
 (= z_0_13 (and z_1_13 z_1_14 z_1_15 z_1_16 z_1_17 z_1_18 z_1_19)))
(assert
 (= z_0_14 (and z_1_14 z_1_15 z_1_16 z_1_17 z_1_18 z_1_19)))
(assert
 (= z_0_15 (and z_1_15 z_1_16 z_1_17 z_1_18 z_1_19)))
(assert
 (= z_0_16 (and z_1_16 z_1_17 z_1_18 z_1_19)))
(assert
 (= z_0_17 (and z_1_17 z_1_18 z_1_19 z_1_16)))
(assert
 (= z_0_18 (and z_1_18 z_1_19 z_1_16 z_1_17)))
(assert
 (= z_0_19 (and z_1_19 z_1_16 z_1_17 z_1_18)))
(assert
 (let (($x116 (and z_1_20 z_1_21 z_1_22 z_1_23 z_1_24 z_1_25 z_1_26 z_1_27 z_1_28 z_1_29 z_1_30)))
 (= z_0_20 $x116)))
(assert
 (let (($x119 (and z_1_21 z_1_22 z_1_23 z_1_24 z_1_25 z_1_26 z_1_27 z_1_28 z_1_29 z_1_30)))
 (= z_0_21 $x119)))
(assert
 (let (($x122 (and z_1_22 z_1_23 z_1_24 z_1_25 z_1_26 z_1_27 z_1_28 z_1_29 z_1_30)))
 (= z_0_22 $x122)))
(assert
 (let (($x125 (and z_1_23 z_1_24 z_1_25 z_1_26 z_1_27 z_1_28 z_1_29 z_1_30)))
 (= z_0_23 $x125)))
(assert
 (= z_0_24 (and z_1_24 z_1_25 z_1_26 z_1_27 z_1_28 z_1_29 z_1_30)))
(assert
 (= z_0_25 (and z_1_25 z_1_26 z_1_27 z_1_28 z_1_29 z_1_30)))
(assert
 (= z_0_26 (and z_1_26 z_1_27 z_1_28 z_1_29 z_1_30 z_1_25)))
(assert
 (= z_0_27 (and z_1_27 z_1_28 z_1_29 z_1_30 z_1_25 z_1_26)))
(assert
 (= z_0_28 (and z_1_28 z_1_29 z_1_30 z_1_25 z_1_26 z_1_27)))
(assert
 (= z_0_29 (and z_1_29 z_1_30 z_1_25 z_1_26 z_1_27 z_1_28)))
(assert
 (= z_0_30 (and z_1_30 z_1_25 z_1_26 z_1_27 z_1_28 z_1_29)))
(assert
 (let (($x151 (and z_1_31 z_1_32 z_1_3 z_1_4 z_1_5 z_1_6 z_1_7 z_1_8 z_1_9)))
 (= z_0_31 $x151)))
(assert
 (= z_0_32 (and z_1_32 z_1_3 z_1_4 z_1_5 z_1_6 z_1_7 z_1_8 z_1_9)))
(assert
 (= z_0_33 (and z_1_33 z_1_34 z_1_35 z_1_36 z_1_37 z_1_38)))
(assert
 (= z_0_34 (and z_1_34 z_1_35 z_1_36 z_1_37 z_1_38)))
(assert
 (= z_0_35 (and z_1_35 z_1_36 z_1_37 z_1_38 z_1_34)))
(assert
 (= z_0_36 (and z_1_36 z_1_37 z_1_38 z_1_34 z_1_35)))
(assert
 (= z_0_37 (and z_1_37 z_1_38 z_1_34 z_1_35 z_1_36)))
(assert
 (= z_0_38 (and z_1_38 z_1_34 z_1_35 z_1_36 z_1_37)))
(assert
 (let (($x193 (and z_1_39 z_1_40 z_1_41 z_1_42 z_1_43 z_1_44 z_1_45 z_1_46 z_1_47 z_1_48 z_1_49 z_1_50)))
 (= z_0_39 $x193)))
(assert
 (let (($x196 (and z_1_40 z_1_41 z_1_42 z_1_43 z_1_44 z_1_45 z_1_46 z_1_47 z_1_48 z_1_49 z_1_50)))
 (= z_0_40 $x196)))
(assert
 (let (($x199 (and z_1_41 z_1_42 z_1_43 z_1_44 z_1_45 z_1_46 z_1_47 z_1_48 z_1_49 z_1_50)))
 (= z_0_41 $x199)))
(assert
 (let (($x202 (and z_1_42 z_1_43 z_1_44 z_1_45 z_1_46 z_1_47 z_1_48 z_1_49 z_1_50)))
 (= z_0_42 $x202)))
(assert
 (let (($x205 (and z_1_43 z_1_44 z_1_45 z_1_46 z_1_47 z_1_48 z_1_49 z_1_50)))
 (= z_0_43 $x205)))
(assert
 (= z_0_44 (and z_1_44 z_1_45 z_1_46 z_1_47 z_1_48 z_1_49 z_1_50)))
(assert
 (= z_0_45 (and z_1_45 z_1_46 z_1_47 z_1_48 z_1_49 z_1_50)))
(assert
 (= z_0_46 (and z_1_46 z_1_47 z_1_48 z_1_49 z_1_50 z_1_45)))
(assert
 (= z_0_47 (and z_1_47 z_1_48 z_1_49 z_1_50 z_1_45 z_1_46)))
(assert
 (= z_0_48 (and z_1_48 z_1_49 z_1_50 z_1_45 z_1_46 z_1_47)))
(assert
 (= z_0_49 (and z_1_49 z_1_50 z_1_45 z_1_46 z_1_47 z_1_48)))
(assert
 (= z_0_50 (and z_1_50 z_1_45 z_1_46 z_1_47 z_1_48 z_1_49)))
(assert
 (= z_0_51 (and z_1_51 z_1_52 z_1_53 z_1_54 z_1_55 z_1_56 z_1_57)))
(assert
 (= z_0_52 (and z_1_52 z_1_53 z_1_54 z_1_55 z_1_56 z_1_57)))
(assert
 (= z_0_53 (and z_1_53 z_1_54 z_1_55 z_1_56 z_1_57)))
(assert
 (= z_0_54 (and z_1_54 z_1_55 z_1_56 z_1_57)))
(assert
 (= z_0_55 (and z_1_55 z_1_56 z_1_57)))
(assert
 (= z_0_56 (and z_1_56 z_1_57)))
(assert
 (= z_0_57 (and z_1_57 z_1_56)))
(assert
 (let (($x269 (and z_1_58 z_1_59 z_1_60 z_1_61 z_1_62 z_1_63 z_1_64 z_1_65 z_1_66 z_1_67 z_1_68 z_1_69)))
 (= z_0_58 $x269)))
(assert
 (let (($x272 (and z_1_59 z_1_60 z_1_61 z_1_62 z_1_63 z_1_64 z_1_65 z_1_66 z_1_67 z_1_68 z_1_69)))
 (= z_0_59 $x272)))
(assert
 (let (($x275 (and z_1_60 z_1_61 z_1_62 z_1_63 z_1_64 z_1_65 z_1_66 z_1_67 z_1_68 z_1_69)))
 (= z_0_60 $x275)))
(assert
 (let (($x278 (and z_1_61 z_1_62 z_1_63 z_1_64 z_1_65 z_1_66 z_1_67 z_1_68 z_1_69)))
 (= z_0_61 $x278)))
(assert
 (let (($x281 (and z_1_62 z_1_63 z_1_64 z_1_65 z_1_66 z_1_67 z_1_68 z_1_69)))
 (= z_0_62 $x281)))
(assert
 (= z_0_63 (and z_1_63 z_1_64 z_1_65 z_1_66 z_1_67 z_1_68 z_1_69)))
(assert
 (= z_0_64 (and z_1_64 z_1_65 z_1_66 z_1_67 z_1_68 z_1_69)))
(assert
 (= z_0_65 (and z_1_65 z_1_66 z_1_67 z_1_68 z_1_69 z_1_64)))
(assert
 (= z_0_66 (and z_1_66 z_1_67 z_1_68 z_1_69 z_1_64 z_1_65)))
(assert
 (= z_0_67 (and z_1_67 z_1_68 z_1_69 z_1_64 z_1_65 z_1_66)))
(assert
 (= z_0_68 (and z_1_68 z_1_69 z_1_64 z_1_65 z_1_66 z_1_67)))
(assert
 (= z_0_69 (and z_1_69 z_1_64 z_1_65 z_1_66 z_1_67 z_1_68)))
(assert
 (let (($x309 (and z_1_70 z_1_71 z_1_72 z_1_73 z_1_17 z_1_18 z_1_19 z_1_16)))
 (= z_0_70 $x309)))
(assert
 (= z_0_71 (and z_1_71 z_1_72 z_1_73 z_1_17 z_1_18 z_1_19 z_1_16)))
(assert
 (= z_0_72 (and z_1_72 z_1_73 z_1_17 z_1_18 z_1_19 z_1_16)))
(assert
 (= z_0_73 (and z_1_73 z_1_17 z_1_18 z_1_19 z_1_16)))
(assert
 z_0_0)
(assert
 (not z_0_1))
(assert
 (not z_0_10))
(assert
 (not z_0_20))
(assert
 (not z_0_31))
(assert
 (not z_0_33))
(assert
 (not z_0_39))
(assert
 (not z_0_51))
(assert
 (not z_0_58))
(assert
 (not z_0_70))
(check-sat)

